CMD:
./solvers/bin/cadical --plain --no-reduce -t 1600 ./data/cnfs//vgasim_imgfifo-p093/vgasim_imgfifo-p093.78.cnf

c --- [ banner ] -------------------------------------------------------------
c 
c CaDiCaL SAT Solver
c Copyright (c) 2016-2024
c A. Biere, M. Fleury, N. Froleyks, K. Fazekas, F. Pollitt, T. Faller
c JKU Linz, University of Freiburg, TU Wien
c 
c Version 2.1.3 5296d3d2a9bf48c154ab2acb5e44625776d821bf
c g++ (Gentoo 12.3.1_p20230526 p2) 12.3.1 20230526 -Wall -Wextra -O3 -DNDEBUG
c Sat Aug 9 07:26:21 PDT 2025 Linux cedar2.int.cedar.computecanada.ca 5.14.0-362.24.2.el9_3.x86_64 x86_64
c 
c --- [ limit ] --------------------------------------------------------------
c 
c setting time limit to 1600 seconds real time (due to '-t 1600')
c 
c --- [ parsing input ] ------------------------------------------------------
c 
c reading DIMACS file from './data/cnfs//vgasim_imgfifo-p093/vgasim_imgfifo-p093.78.cnf'
c opening file to read './data/cnfs//vgasim_imgfifo-p093/vgasim_imgfifo-p093.78.cnf'
c found 'p cnf 376563 1088080' header
c parsed 1088080 clauses in 0.17 seconds process time
c 
c --- [ options ] ------------------------------------------------------------
c 
c   --compact=false                (different from default 'true')
c   --decompose=false              (different from default 'true')
c   --deduplicate=false            (different from default 'true')
c   --elim=false                   (different from default 'true')
c   --probe=false                  (different from default 'true')
c   --reduce=false                 (different from default 'true')
c   --subsume=false                (different from default 'true')
c   --ternary=false                (different from default 'true')
c   --transred=false               (different from default 'true')
c   --vivify=false                 (different from default 'true')
c 
c --- [ solving ] ------------------------------------------------------------
c 
c time measured in process time since initialization
c 
c  seconds   reductions  redundant   irredundant
c          MB    restarts       trail        variables
c           level   conflicts       glue           remaining
c 
c *  0.17 169  0 0   0    0    0  0% 0 1040797 317209 84%
c {  0.18 170  0 0   0    0    0  0% 0 1040797 317209 84%
c i  0.25 172 178 0   2  182  166 28% 2 1040797 315831 84%
c i  0.25 172 177 0   3  183  166 28% 2 1040797 315794 84%
c i  0.25 172 176 0   3  184  166 28% 2 1040797 315720 84%
c i  0.25 172 175 0   3  185  166 28% 2 1040797 315716 84%
c i  0.27 173 142 0   6  307  249 26% 2 1040797 315704 84%
c i  0.27 173 141 0   6  308  249 26% 2 1040797 315692 84%
c i  0.27 173 141 0   6  310  250 26% 2 1040797 315688 84%
c i  0.27 173 139 0   7  315  253 26% 2 1040797 315591 84%
c i  0.28 173 139 0   7  317  254 26% 2 1040797 315583 84%
c i  0.28 173 138 0   8  318  254 26% 2 1040797 315560 84%
c i  0.28 173 137 0   8  320  255 26% 2 1040797 315524 84%
c i  0.28 173 136 0   9  322  256 26% 2 1040797 315516 84%
c i  0.28 173 136 0   9  323  256 26% 2 1040797 315515 84%
c i  0.28 173 135 0  10  325  257 26% 2 1040797 315384 84%
c i  0.28 173 124 0  15  350  279 25% 2 1040797 315265 84%
c i  0.28 173 123 0  15  352  280 25% 2 1040797 315047 84%
c i  0.28 173 123 0  15  353  280 25% 2 1040797 315026 84%
c i  0.28 173 122 0  15  356  282 25% 2 1040797 315018 84%
c 
c  seconds   reductions  redundant   irredundant
c          MB    restarts       trail        variables
c           level   conflicts       glue           remaining
c 
c i  0.30 173 96 0  27  511  423 24% 2 1040797 314936 84%
c i  0.30 173 91 0  27  551  457 24% 2 1040797 314661 84%
c i  0.31 173 87 0  27  574  479 24% 2 1040797 314625 84%
c i  0.31 173 84 0  27  599  498 23% 2 1040797 314589 84%
c i  0.41 174 87 0  32  786  658 25% 2 1040797 314487 84%
c i  0.46 174 87 0  35  802  669 26% 2 1040797 314480 84%
c i  0.47 174 86 0  35  810  676 26% 2 1040797 314392 83%
c i  0.47 174 85 0  35  821  685 26% 2 1040797 314035 83%
c i  0.53 175 85 0  38  890  743 27% 2 1040797 313864 83%
c i  0.55 175 82 0  49  934  779 27% 2 1040797 313353 83%
c i  0.58 175 79 0  56  984  823 26% 2 1040797 313350 83%
c i  0.59 175 78 0  56  987  825 26% 2 1040797 313347 83%
c i  0.59 175 78 0  56  988  825 26% 2 1040797 313346 83%
c i  0.59 175 78 0  56  989  825 26% 2 1040797 313343 83%
c }  0.62 175 78 0  58 1000  835 26% 2 1040797 313343 83%
c [  0.62 175  0 0  58 1000  835  0% 0 1040797 313343 83%
c O  0.67 176 1143 0  58 1003  838 42% 3 1040797 313343 83%
c i  0.78 176 220 0  58 1084  911 33% 2 1040797 313025 83%
c i  0.81 176 202 0  58 1091  915 33% 2 1040797 312385 83%
c i  0.81 176 197 0  58 1093  916 33% 2 1040797 312140 83%
c 
c  seconds    reductions  redundant   irredundant
c          MB     restarts       trail        variables
c            level   conflicts       glue           remaining
c 
c ]  0.81 176 195 0  58 1095  916 32% 2 1040797 310906 83%
c 0  0.81 176 195 0  58 1095  916 32% 2 1040797 310906 83%
c 
c --- [ result ] -------------------------------------------------------------
c 
s UNSATISFIABLE
c 
c --- [ run-time profiling ] -------------------------------------------------
c 
c process time taken by individual solving procedures
c (percentage relative to process time for solving)
c 
c         0.65   99.98% search
c         0.44   67.34% unstable
c         0.20   30.59% stable
c         0.17   25.69% parse
c         0.01    2.04% lucky
c         0.00    0.00% simplify
c   =================================
c         0.65   79.52% solve
c 
c last line shows process time for solving
c (percentage relative to total process time)
c 
c --- [ statistics ] ---------------------------------------------------------
c 
c chronological:               600        54.79 %  of conflicts
c conflicts:                  1095      1693.61    per second
c decisions:                  7349     11366.55    per second
c fixed:                     65609        17.42 %  of all variables
c learned:                     987        90.14 %  per conflict
c learned_lits:               9285       100.00 %  learned literals
c minimized:                     0         0.00 %  learned literals
c shrunken:                   1544        16.63 %  learned literals
c minishrunken:                664         7.15 %  learned literals
c otfs:                        135        12.33 %  of conflict
c propagations:            5540423         8.57 M  per second
c rephased:                      1      1095.00    interval
c restarts:                     58        18.88    interval
c stabilizing:                   1         8.68 %  of conflicts
c subsumed:                     32         0.00 %  of all clauses
c strengthened:                135         0.01 %  of all clauses
c 
c seconds are measured in process time for solving
c 
c --- [ resources ] ----------------------------------------------------------
c 
c total process time since initialization:         0.81    seconds
c total real time since initialization:            0.82    seconds
c maximum resident set size of process:          175.07    MB
c 
c --- [ shutting down ] ------------------------------------------------------
c 
c exit 20
